<number of tasks>
50

<cycle time>
1000

<order strength>
0.6


<task times>
1 50
2 311
3 238
4 128
5 274
6 200
7 102
8 313
9 61
10 246
11 55
12 204
13 53
14 208
15 219
16 144
17 96
18 61
19 82
20 210
21 158
22 98
23 147
24 92
25 225
26 132
27 141
28 183
29 187
30 118
31 82
32 179
33 46
34 82
35 40
36 84
37 136
38 191
39 39
40 101
41 229
42 211
43 52
44 91
45 51
46 50
47 102
48 249
49 75
50 50

<precedence relations>
1,6
2,7
2,8
3,7
3,8
4,7
4,8
5,7
5,8
6,9
7,10
7,11
7,12
7,13
8,10
8,11
8,12
8,13
9,15
10,14
10,17
10,18
11,16
11,17
11,18
12,17
12,18
13,17
13,18
14,19
15,24
16,22
17,20
17,23
17,24
18,21
18,23
18,24
19,27
20,25
21,26
22,29
23,28
23,30
23,31
24,31
25,32
26,36
27,33
28,34
29,37
30,35
31,36
31,37
31,38
32,40
33,40
34,39
35,40
36,40
37,40
38,40
39,41
40,42
40,43
41,44
42,45
42,46
42,47
42,48
42,49
43,45
43,46
43,47
43,49
44,50
46,50
47,50

<end>
